c "623094.clq"
p edge 140 544
e 1 5
e 1 6
e 1 7
e 1 9
e 1 14
e 1 16
e 1 27
e 1 36
e 1 40
e 1 43
e 1 53
e 1 55
e 1 61
e 1 63
e 1 66
e 1 71
e 1 75
e 1 79
e 1 108
e 1 129
e 1 131
e 1 135
e 2 5
e 2 9
e 2 17
e 2 34
e 2 68
e 2 90
e 2 131
e 3 5
e 3 6
e 3 7
e 3 8
e 3 10
e 3 11
e 3 13
e 3 14
e 3 15
e 3 19
e 3 21
e 3 23
e 3 24
e 3 32
e 3 53
e 3 58
e 3 59
e 3 68
e 3 76
e 3 77
e 3 79
e 3 82
e 3 85
e 3 96
e 3 119
e 3 127
e 3 138
e 4 5
e 4 6
e 4 8
e 4 9
e 5 6
e 5 7
e 5 12
e 5 26
e 5 35
e 5 37
e 5 55
e 5 61
e 5 62
e 5 66
e 5 69
e 5 92
e 5 109
e 5 112
e 5 117
e 5 121
e 5 126
e 5 129
e 6 7
e 6 8
e 6 10
e 6 12
e 6 13
e 6 15
e 6 18
e 6 19
e 6 22
e 6 27
e 6 29
e 6 32
e 6 33
e 6 41
e 6 43
e 6 45
e 6 49
e 6 51
e 6 52
e 6 70
e 6 76
e 6 82
e 6 84
e 6 86
e 6 89
e 6 110
e 6 111
e 6 115
e 6 122
e 6 135
e 7 8
e 7 10
e 7 11
e 7 12
e 7 17
e 7 19
e 7 23
e 7 24
e 7 25
e 7 26
e 7 29
e 7 30
e 7 35
e 7 38
e 7 39
e 7 42
e 7 44
e 7 45
e 7 46
e 7 53
e 7 59
e 7 70
e 7 80
e 7 87
e 7 90
e 7 100
e 7 104
e 7 105
e 7 110
e 7 117
e 7 121
e 7 129
e 7 130
e 7 134
e 7 140
e 8 9
e 8 11
e 8 13
e 8 14
e 8 16
e 8 20
e 8 22
e 8 28
e 8 32
e 8 33
e 8 34
e 8 38
e 8 39
e 8 58
e 8 61
e 8 67
e 8 72
e 8 79
e 8 85
e 8 89
e 8 90
e 8 94
e 8 106
e 8 107
e 8 109
e 8 125
e 8 128
e 8 132
e 8 137
e 9 10
e 9 11
e 9 12
e 9 15
e 9 16
e 9 19
e 9 23
e 9 27
e 9 33
e 9 39
e 9 50
e 9 54
e 9 75
e 9 81
e 9 92
e 9 93
e 9 95
e 9 126
e 9 135
e 9 137
e 10 13
e 10 24
e 10 29
e 10 43
e 10 45
e 10 49
e 10 62
e 10 65
e 10 86
e 10 104
e 10 106
e 10 115
e 10 140
e 11 18
e 11 25
e 11 28
e 11 30
e 11 52
e 11 56
e 11 74
e 11 80
e 11 81
e 11 97
e 12 16
e 12 18
e 12 21
e 12 22
e 12 33
e 12 42
e 12 47
e 12 103
e 12 112
e 12 113
e 12 123
e 13 14
e 13 21
e 13 23
e 13 26
e 13 46
e 13 47
e 13 60
e 13 67
e 13 72
e 13 107
e 13 125
e 13 136
e 14 15
e 14 17
e 14 18
e 14 47
e 14 51
e 14 74
e 14 97
e 14 105
e 14 110
e 14 111
e 14 116
e 14 131
e 14 134
e 15 24
e 15 36
e 15 37
e 15 42
e 15 43
e 15 48
e 15 50
e 15 111
e 15 117
e 15 120
e 16 17
e 16 20
e 16 28
e 16 31
e 16 32
e 16 38
e 16 40
e 16 45
e 16 46
e 16 49
e 16 62
e 16 66
e 16 68
e 16 71
e 16 99
e 16 102
e 16 129
e 17 20
e 17 21
e 17 31
e 17 35
e 17 58
e 17 60
e 17 65
e 17 91
e 18 27
e 18 29
e 18 56
e 18 92
e 18 112
e 18 124
e 19 20
e 19 22
e 19 25
e 19 36
e 19 41
e 19 63
e 19 80
e 19 87
e 19 95
e 19 100
e 19 120
e 19 139
e 20 37
e 20 87
e 21 42
e 21 66
e 21 68
e 21 77
e 21 78
e 21 86
e 21 93
e 21 123
e 22 36
e 22 47
e 22 67
e 22 71
e 22 85
e 23 25
e 23 26
e 23 30
e 23 44
e 23 57
e 23 82
e 23 138
e 24 41
e 24 48
e 24 86
e 24 139
e 25 30
e 25 48
e 25 50
e 25 51
e 25 53
e 25 71
e 25 77
e 25 81
e 25 83
e 25 115
e 26 40
e 26 72
e 26 82
e 26 101
e 26 136
e 27 28
e 27 31
e 27 34
e 27 48
e 27 51
e 27 74
e 27 78
e 27 85
e 27 89
e 27 122
e 28 35
e 28 74
e 28 83
e 28 100
e 28 101
e 28 109
e 28 137
e 29 31
e 30 38
e 30 54
e 30 70
e 30 79
e 30 93
e 30 98
e 30 103
e 31 34
e 31 37
e 31 62
e 31 84
e 31 96
e 31 132
e 31 133
e 32 63
e 32 118
e 33 55
e 33 77
e 33 94
e 34 40
e 34 54
e 34 98
e 34 104
e 34 107
e 34 112
e 34 113
e 34 114
e 34 116
e 34 130
e 35 44
e 35 58
e 35 65
e 35 78
e 35 96
e 36 39
e 36 44
e 36 56
e 36 57
e 36 64
e 37 52
e 37 64
e 37 139
e 38 41
e 38 46
e 38 52
e 38 56
e 38 69
e 38 72
e 38 126
e 38 133
e 40 59
e 40 90
e 40 119
e 41 60
e 41 64
e 41 83
e 41 88
e 41 99
e 41 132
e 41 134
e 42 73
e 42 95
e 42 105
e 43 54
e 43 61
e 43 63
e 43 64
e 43 84
e 43 121
e 43 127
e 43 136
e 44 69
e 44 75
e 44 94
e 44 125
e 44 130
e 45 49
e 46 50
e 46 121
e 46 134
e 47 76
e 47 136
e 48 55
e 48 59
e 48 104
e 48 138
e 49 57
e 50 57
e 50 106
e 50 113
e 50 118
e 51 73
e 52 84
e 52 100
e 53 88
e 53 125
e 54 60
e 54 73
e 54 78
e 54 94
e 54 97
e 54 98
e 54 108
e 55 76
e 55 109
e 56 67
e 56 69
e 56 70
e 57 91
e 57 116
e 57 128
e 57 131
e 58 92
e 58 103
e 59 99
e 60 65
e 61 75
e 61 91
e 62 80
e 64 73
e 64 135
e 65 89
e 65 102
e 65 108
e 66 99
e 66 114
e 66 123
e 68 81
e 69 123
e 71 83
e 71 93
e 72 114
e 73 124
e 74 122
e 75 127
e 76 133
e 77 110
e 78 128
e 79 101
e 80 124
e 80 128
e 81 114
e 81 118
e 82 88
e 82 122
e 83 88
e 83 102
e 83 116
e 84 91
e 84 95
e 86 87
e 86 138
e 87 102
e 88 98
e 88 115
e 88 120
e 89 97
e 89 113
e 90 107
e 90 140
e 91 96
e 93 130
e 94 101
e 94 106
e 94 119
e 94 124
e 95 103
e 95 105
e 96 120
e 97 139
e 98 111
e 100 140
e 102 132
e 102 137
e 104 108
e 104 117
e 105 126
e 106 118
e 114 133
e 118 119
e 119 127
